(set-logic QF_S)
(declare-fun T_1 () String)
(declare-fun T2_3 () String)
(declare-fun T1_3 () String)
(declare-fun var_0xINPUT_24241 () String)
(declare-fun PCTEMP_LHS_2 () String)
(declare-fun PCTEMP_LHS_1 () String)
(assert (and (= T_1 (concat T1_3 T2_3)) (= (len T2_3) 0) (= T1_3 var_0xINPUT_24241) (= PCTEMP_LHS_2 PCTEMP_LHS_1) (not (in PCTEMP_LHS_2 /%/))))
(check-sat var_0xINPUT_24241)